data;

param num_top:=6;

#nodes and edges of the physical network
param n := 10;

set E := (1,2) (1,3) (1,7) (2,4) (2,7) (3,5) (4,8) (5,6) (5,7) (6,7) (6,9) (7,8) (7,9) (8,10) (9,10) ;

#nodes and edges of the virtual networks
set Nl[1] := 8 7 5 4 6 ;
set Nl[2] := 8 9 3 7 1 ;
set Nl[3] := 10 5 1 9 4 ;
set Nl[4] := 1 9 7 6 4 ;
set Nl[5] := 4 9 5 1 7 ;
set Nl[6] := 4 8 10 6 5 ;

set El[1] := (7,8) (5,7) (4,5) (4,6) (6,8) (4,8) (4,7) (5,6) (6,7) (5,8) ;
set El[2] := (8,9) (3,9) (3,7) (1,7) (1,8) (7,8) (3,8) (1,9) (7,9) (1,3) ;
set El[3] := (5,10) (1,5) (1,9) (4,9) (4,10) (1,10) (1,4) (5,9) (4,5) (9,10) ;
set El[4] := (1,9) (7,9) (6,7) (4,6) (1,4) (4,7) (1,7) (1,6) (6,9) (4,9) ;
set El[5] := (4,9) (5,9) (1,5) (1,7) (4,7) (7,9) (1,4) (5,7) (4,5) (1,9) ;
set El[6] := (4,8) (8,10) (6,10) (5,6) (4,5) (4,6) (5,8) (5,10) (4,10) (6,8) ;
